p edge 1267 1222
e 1 2
e 1 3
e 1 4
e 1 5
e 1 6
e 1 7
e 1 8
e 1 9
e 1 10
e 1 11
e 12 13
e 12 14
e 12 15
e 12 16
e 12 17
e 12 18
e 12 19
e 12 20
e 12 21
e 12 22
e 12 23
e 12 24
e 12 25
e 12 26
e 12 27
e 12 28
e 12 29
e 12 30
e 12 31
e 32 33
e 32 34
e 32 35
e 32 36
e 32 37
e 32 38
e 32 39
e 32 40
e 32 41
e 32 42
e 32 43
e 32 44
e 32 45
e 32 46
e 32 47
e 32 48
e 32 49
e 32 50
e 32 51
e 32 52
e 32 53
e 32 54
e 32 55
e 32 56
e 32 57
e 32 58
e 32 59
e 32 60
e 32 61
e 32 62
e 63 64
e 63 65
e 63 66
e 63 67
e 63 68
e 63 69
e 63 70
e 63 71
e 63 72
e 63 73
e 63 74
e 63 75
e 63 76
e 63 77
e 63 78
e 63 79
e 63 80
e 63 81
e 63 82
e 63 83
e 84 85
e 84 86
e 84 87
e 84 88
e 84 89
e 84 90
e 84 91
e 84 92
e 84 93
e 84 94
e 84 95
e 84 96
e 84 97
e 84 98
e 84 99
e 84 100
e 84 101
e 84 102
e 84 103
e 84 104
e 84 105
e 106 107
e 106 108
e 106 109
e 106 110
e 106 111
e 106 112
e 106 113
e 106 114
e 106 115
e 106 116
e 106 117
e 106 118
e 106 119
e 106 120
e 106 121
e 106 122
e 106 123
e 106 124
e 106 125
e 106 126
e 106 127
e 106 128
e 106 129
e 106 130
e 106 131
e 106 132
e 106 133
e 106 134
e 106 135
e 106 136
e 106 137
e 106 138
e 106 139
e 106 140
e 106 141
e 106 142
e 143 144
e 143 145
e 143 146
e 143 147
e 143 148
e 143 149
e 143 150
e 143 151
e 143 152
e 143 153
e 143 154
e 143 155
e 143 156
e 143 157
e 143 158
e 143 159
e 143 160
e 143 161
e 143 162
e 143 163
e 143 164
e 143 165
e 143 166
e 143 167
e 143 168
e 143 169
e 143 170
e 143 171
e 143 172
e 143 173
e 143 174
e 143 175
e 143 176
e 143 177
e 143 178
e 143 179
e 180 181
e 180 182
e 180 183
e 180 184
e 180 185
e 180 186
e 180 187
e 180 188
e 180 189
e 180 190
e 180 191
e 180 192
e 180 193
e 180 194
e 180 195
e 196 197
e 196 198
e 196 199
e 196 200
e 196 201
e 196 202
e 196 203
e 196 204
e 196 205
e 196 206
e 196 207
e 196 208
e 196 209
e 196 210
e 196 211
e 196 212
e 196 213
e 196 214
e 196 215
e 196 216
e 196 217
e 196 218
e 196 219
e 196 220
e 196 221
e 196 222
e 196 223
e 224 225
e 224 226
e 224 227
e 224 228
e 224 229
e 224 230
e 224 231
e 224 232
e 224 233
e 224 234
e 224 235
e 224 236
e 224 237
e 224 238
e 224 239
e 224 240
e 224 241
e 224 242
e 224 243
e 224 244
e 224 245
e 224 246
e 224 247
e 224 248
e 224 249
e 224 250
e 224 251
e 224 252
e 224 253
e 224 254
e 255 256
e 255 257
e 255 258
e 255 259
e 255 260
e 255 261
e 255 262
e 255 263
e 255 264
e 255 265
e 255 266
e 255 267
e 255 268
e 255 269
e 255 270
e 255 271
e 255 272
e 255 273
e 255 274
e 255 275
e 255 276
e 255 277
e 255 278
e 255 279
e 255 280
e 255 281
e 255 282
e 255 283
e 255 284
e 255 285
e 255 286
e 255 287
e 255 288
e 289 290
e 289 291
e 289 292
e 289 293
e 289 294
e 289 295
e 289 296
e 289 297
e 289 298
e 289 299
e 289 300
e 289 301
e 289 302
e 289 303
e 289 304
e 289 305
e 289 306
e 289 307
e 289 308
e 289 309
e 289 310
e 289 311
e 289 312
e 289 313
e 289 314
e 289 315
e 289 316
e 289 317
e 289 318
e 289 319
e 289 320
e 321 322
e 321 323
e 321 324
e 321 325
e 321 326
e 321 327
e 321 328
e 321 329
e 321 330
e 321 331
e 321 332
e 321 333
e 321 334
e 321 335
e 321 336
e 321 337
e 321 338
e 321 339
e 321 340
e 321 341
e 321 342
e 321 343
e 321 344
e 321 345
e 321 346
e 321 347
e 321 348
e 321 349
e 321 350
e 321 351
e 321 352
e 353 354
e 353 355
e 353 356
e 353 357
e 353 358
e 353 359
e 353 360
e 353 361
e 353 362
e 353 363
e 353 364
e 353 365
e 353 366
e 353 367
e 353 368
e 353 369
e 353 370
e 353 371
e 353 372
e 353 373
e 353 374
e 353 375
e 353 376
e 377 378
e 377 379
e 377 380
e 377 381
e 377 382
e 377 383
e 377 384
e 377 385
e 377 386
e 377 387
e 377 388
e 377 389
e 377 390
e 377 391
e 377 392
e 377 393
e 377 394
e 377 395
e 377 396
e 377 397
e 377 398
e 377 399
e 377 400
e 377 401
e 377 402
e 377 403
e 377 404
e 377 405
e 377 406
e 407 408
e 407 409
e 407 410
e 407 411
e 407 412
e 407 413
e 407 414
e 407 415
e 407 416
e 407 417
e 407 418
e 407 419
e 407 420
e 407 421
e 407 422
e 407 423
e 407 424
e 407 425
e 407 426
e 407 427
e 407 428
e 407 429
e 407 430
e 407 431
e 407 432
e 407 433
e 407 434
e 407 435
e 407 436
e 407 437
e 407 438
e 407 439
e 407 440
e 407 441
e 442 443
e 442 444
e 442 445
e 442 446
e 442 447
e 442 448
e 442 449
e 442 450
e 442 451
e 442 452
e 442 453
e 442 454
e 442 455
e 442 456
e 442 457
e 442 458
e 442 459
e 442 460
e 442 461
e 442 462
e 442 463
e 442 464
e 442 465
e 442 466
e 442 467
e 442 468
e 442 469
e 470 471
e 470 472
e 470 473
e 470 474
e 470 475
e 470 476
e 470 477
e 470 478
e 470 479
e 470 480
e 470 481
e 470 482
e 470 483
e 470 484
e 470 485
e 470 486
e 470 487
e 470 488
e 470 489
e 470 490
e 470 491
e 470 492
e 470 493
e 470 494
e 495 496
e 495 497
e 495 498
e 495 499
e 495 500
e 495 501
e 495 502
e 495 503
e 495 504
e 495 505
e 495 506
e 495 507
e 495 508
e 495 509
e 495 510
e 495 511
e 495 512
e 495 513
e 495 514
e 495 515
e 495 516
e 495 517
e 495 518
e 495 519
e 495 520
e 495 521
e 495 522
e 495 523
e 495 524
e 495 525
e 495 526
e 495 527
e 495 528
e 495 529
e 495 530
e 531 532
e 531 533
e 531 534
e 531 535
e 531 536
e 531 537
e 531 538
e 531 539
e 531 540
e 531 541
e 531 542
e 531 543
e 531 544
e 531 545
e 531 546
e 531 547
e 531 548
e 549 550
e 549 551
e 549 552
e 549 553
e 549 554
e 549 555
e 549 556
e 549 557
e 549 558
e 549 559
e 549 560
e 549 561
e 549 562
e 549 563
e 549 564
e 549 565
e 549 566
e 549 567
e 549 568
e 549 569
e 549 570
e 549 571
e 549 572
e 549 573
e 549 574
e 549 575
e 549 576
e 577 578
e 577 579
e 577 580
e 577 581
e 577 582
e 577 583
e 577 584
e 577 585
e 577 586
e 577 587
e 577 588
e 577 589
e 577 590
e 577 591
e 577 592
e 577 593
e 577 594
e 577 595
e 577 596
e 577 597
e 577 598
e 577 599
e 577 600
e 577 601
e 577 602
e 577 603
e 577 604
e 577 605
e 606 607
e 606 608
e 606 609
e 606 610
e 606 611
e 606 612
e 606 613
e 606 614
e 606 615
e 606 616
e 606 617
e 606 618
e 606 619
e 606 620
e 606 621
e 606 622
e 606 623
e 606 624
e 606 625
e 606 626
e 606 627
e 606 628
e 606 629
e 606 630
e 606 631
e 606 632
e 606 633
e 606 634
e 606 635
e 606 636
e 606 637
e 606 638
e 606 639
e 606 640
e 606 641
e 606 642
e 606 643
e 644 645
e 644 646
e 644 647
e 644 648
e 644 649
e 644 650
e 644 651
e 644 652
e 644 653
e 644 654
e 644 655
e 644 656
e 644 657
e 644 658
e 644 659
e 644 660
e 644 661
e 644 662
e 644 663
e 644 664
e 644 665
e 644 666
e 644 667
e 644 668
e 644 669
e 644 670
e 644 671
e 644 672
e 644 673
e 644 674
e 644 675
e 644 676
e 644 677
e 644 678
e 644 679
e 644 680
e 644 681
e 644 682
e 644 683
e 644 684
e 685 686
e 685 687
e 685 688
e 685 689
e 685 690
e 685 691
e 685 692
e 685 693
e 685 694
e 685 695
e 685 696
e 685 697
e 685 698
e 685 699
e 685 700
e 685 701
e 685 702
e 685 703
e 685 704
e 685 705
e 685 706
e 685 707
e 708 709
e 708 710
e 708 711
e 708 712
e 708 713
e 708 714
e 708 715
e 708 716
e 708 717
e 708 718
e 708 719
e 708 720
e 708 721
e 708 722
e 708 723
e 708 724
e 708 725
e 708 726
e 708 727
e 708 728
e 708 729
e 708 730
e 708 731
e 708 732
e 708 733
e 708 734
e 708 735
e 708 736
e 708 737
e 708 738
e 708 739
e 708 740
e 708 741
e 708 742
e 708 743
e 744 745
e 744 746
e 744 747
e 744 748
e 744 749
e 744 750
e 744 751
e 744 752
e 744 753
e 744 754
e 744 755
e 744 756
e 744 757
e 744 758
e 744 759
e 744 760
e 744 761
e 744 762
e 744 763
e 744 764
e 744 765
e 744 766
e 744 767
e 744 768
e 744 769
e 744 770
e 744 771
e 744 772
e 744 773
e 744 774
e 775 776
e 775 777
e 775 778
e 775 779
e 775 780
e 775 781
e 775 782
e 775 783
e 775 784
e 775 785
e 775 786
e 775 787
e 775 788
e 775 789
e 775 790
e 775 791
e 775 792
e 775 793
e 775 794
e 775 795
e 775 796
e 775 797
e 775 798
e 775 799
e 775 800
e 775 801
e 775 802
e 775 803
e 775 804
e 775 805
e 806 807
e 806 808
e 806 809
e 806 810
e 806 811
e 806 812
e 806 813
e 806 814
e 806 815
e 806 816
e 806 817
e 806 818
e 806 819
e 806 820
e 806 821
e 806 822
e 806 823
e 806 824
e 806 825
e 806 826
e 806 827
e 806 828
e 806 829
e 806 830
e 806 831
e 806 832
e 806 833
e 834 835
e 834 836
e 834 837
e 834 838
e 834 839
e 834 840
e 834 841
e 834 842
e 834 843
e 834 844
e 834 845
e 834 846
e 834 847
e 834 848
e 834 849
e 834 850
e 834 851
e 834 852
e 834 853
e 834 854
e 834 855
e 834 856
e 834 857
e 834 858
e 834 859
e 834 860
e 834 861
e 834 862
e 834 863
e 834 864
e 834 865
e 834 866
e 834 867
e 834 868
e 869 870
e 869 871
e 869 872
e 869 873
e 869 874
e 869 875
e 869 876
e 869 877
e 869 878
e 869 879
e 869 880
e 869 881
e 869 882
e 869 883
e 869 884
e 869 885
e 869 886
e 869 887
e 888 889
e 888 890
e 888 891
e 888 892
e 888 893
e 888 894
e 888 895
e 888 896
e 888 897
e 888 898
e 888 899
e 888 900
e 901 902
e 901 903
e 901 904
e 901 905
e 901 906
e 901 907
e 901 908
e 901 909
e 901 910
e 901 911
e 901 912
e 901 913
e 901 914
e 901 915
e 901 916
e 901 917
e 901 918
e 901 919
e 901 920
e 901 921
e 901 922
e 901 923
e 901 924
e 901 925
e 901 926
e 901 927
e 901 928
e 901 929
e 901 930
e 901 931
e 901 932
e 901 933
e 901 934
e 901 935
e 901 936
e 901 937
e 901 938
e 901 939
e 901 940
e 901 941
e 942 943
e 942 944
e 942 945
e 942 946
e 942 947
e 942 948
e 942 949
e 942 950
e 942 951
e 942 952
e 942 953
e 942 954
e 942 955
e 942 956
e 957 958
e 957 959
e 957 960
e 957 961
e 957 962
e 957 963
e 957 964
e 957 965
e 957 966
e 957 967
e 957 968
e 957 969
e 957 970
e 957 971
e 957 972
e 957 973
e 957 974
e 957 975
e 957 976
e 957 977
e 957 978
e 957 979
e 957 980
e 957 981
e 957 982
e 957 983
e 957 984
e 957 985
e 957 986
e 957 987
e 988 989
e 988 990
e 988 991
e 988 992
e 988 993
e 988 994
e 988 995
e 988 996
e 988 997
e 988 998
e 988 999
e 988 1000
e 988 1001
e 988 1002
e 988 1003
e 988 1004
e 988 1005
e 988 1006
e 988 1007
e 988 1008
e 988 1009
e 988 1010
e 988 1011
e 988 1012
e 988 1013
e 988 1014
e 988 1015
e 988 1016
e 988 1017
e 988 1018
e 988 1019
e 988 1020
e 1021 1022
e 1021 1023
e 1021 1024
e 1021 1025
e 1021 1026
e 1021 1027
e 1021 1028
e 1021 1029
e 1021 1030
e 1021 1031
e 1021 1032
e 1021 1033
e 1021 1034
e 1021 1035
e 1021 1036
e 1021 1037
e 1021 1038
e 1021 1039
e 1021 1040
e 1021 1041
e 1021 1042
e 1021 1043
e 1021 1044
e 1021 1045
e 1021 1046
e 1021 1047
e 1021 1048
e 1021 1049
e 1021 1050
e 1021 1051
e 1021 1052
e 1021 1053
e 1054 1055
e 1054 1056
e 1054 1057
e 1054 1058
e 1054 1059
e 1054 1060
e 1054 1061
e 1054 1062
e 1054 1063
e 1054 1064
e 1054 1065
e 1054 1066
e 1054 1067
e 1054 1068
e 1054 1069
e 1054 1070
e 1054 1071
e 1054 1072
e 1073 1074
e 1073 1075
e 1073 1076
e 1073 1077
e 1073 1078
e 1073 1079
e 1073 1080
e 1073 1081
e 1073 1082
e 1073 1083
e 1073 1084
e 1073 1085
e 1073 1086
e 1073 1087
e 1073 1088
e 1073 1089
e 1073 1090
e 1091 1092
e 1091 1093
e 1091 1094
e 1091 1095
e 1091 1096
e 1091 1097
e 1091 1098
e 1091 1099
e 1091 1100
e 1091 1101
e 1091 1102
e 1091 1103
e 1091 1104
e 1091 1105
e 1106 1107
e 1106 1108
e 1106 1109
e 1106 1110
e 1106 1111
e 1106 1112
e 1106 1113
e 1106 1114
e 1106 1115
e 1106 1116
e 1106 1117
e 1106 1118
e 1106 1119
e 1106 1120
e 1106 1121
e 1106 1122
e 1106 1123
e 1106 1124
e 1125 1126
e 1125 1127
e 1125 1128
e 1125 1129
e 1125 1130
e 1125 1131
e 1125 1132
e 1125 1133
e 1125 1134
e 1125 1135
e 1125 1136
e 1125 1137
e 1125 1138
e 1125 1139
e 1125 1140
e 1125 1141
e 1125 1142
e 1125 1143
e 1125 1144
e 1125 1145
e 1125 1146
e 1125 1147
e 1125 1148
e 1125 1149
e 1125 1150
e 1125 1151
e 1125 1152
e 1125 1153
e 1125 1154
e 1125 1155
e 1125 1156
e 1125 1157
e 1125 1158
e 1125 1159
e 1125 1160
e 1125 1161
e 1125 1162
e 1125 1163
e 1125 1164
e 1165 1166
e 1165 1167
e 1165 1168
e 1165 1169
e 1165 1170
e 1165 1171
e 1165 1172
e 1165 1173
e 1165 1174
e 1165 1175
e 1165 1176
e 1165 1177
e 1165 1178
e 1165 1179
e 1165 1180
e 1165 1181
e 1165 1182
e 1165 1183
e 1165 1184
e 1165 1185
e 1165 1186
e 1165 1187
e 1165 1188
e 1165 1189
e 1165 1190
e 1165 1191
e 1165 1192
e 1165 1193
e 1194 1195
e 1194 1196
e 1194 1197
e 1194 1198
e 1194 1199
e 1194 1200
e 1194 1201
e 1194 1202
e 1194 1203
e 1194 1204
e 1194 1205
e 1194 1206
e 1194 1207
e 1194 1208
e 1194 1209
e 1194 1210
e 1194 1211
e 1194 1212
e 1194 1213
e 1194 1214
e 1194 1215
e 1194 1216
e 1194 1217
e 1194 1218
e 1194 1219
e 1194 1220
e 1194 1221
e 1194 1222
e 1194 1223
e 1194 1224
e 1194 1225
e 1194 1226
e 1194 1227
e 1194 1228
e 1194 1229
e 1194 1230
e 1194 1231
e 1194 1232
e 1194 1233
e 1234 1235
e 1234 1236
e 1234 1237
e 1234 1238
e 1234 1239
e 1234 1240
e 1234 1241
e 1234 1242
e 1234 1243
e 1234 1244
e 1234 1245
e 1234 1246
e 1234 1247
e 1234 1248
e 1234 1249
e 1234 1250
e 1234 1251
e 1234 1252
e 1234 1253
e 1234 1254
e 1234 1255
e 1234 1256
e 1234 1257
e 1234 1258
e 1234 1259
e 1234 1260
e 1234 1261
e 1234 1262
e 1234 1263
e 1234 1264
e 1234 1265
e 1234 1266
e 1234 1267
